NAME : XML100_2165_14
DIMENSION : 101
NB_CLUSTERS : 34
CLUSTERING_ALG : DBSCAN
CLUSTERING_PARAMS : eps(52), minSamples(3)
CLUSTERS
1 0
2 8 20 89
3 10 33 56
4 15 25 49
5 6 11 16 48 66
6 46 51 52
7 50 63 86 94
8 2 24 28 32 40 77 92 93
9 1 34
10 36 95
11 3 35 61
12 22 31 37
13 72 74
14 12 30
15 23 53 78
16 67 85
17 45 54 62 69 84
18 29 59
19 19 60 64 91
20 71 80 99
21 75 83 98
22 5 9
23 18 70
24 26 38 43 68 73 81 87 88
25 65 76
26 13 17 42 55 79
27 44 82
28 41 97
29 7 96
30 4 21
31 14 39
32 27 57
33 47 100
34 58 90
EOF